language Essence 1.3

letting blksize_delta be
        function(1 --> 8, 2 --> 8, 3 --> 9, 4 --> 8, 5 --> 8, 6 --> 9, 7 --> 8, 8 --> 8, 9 --> 8, 10 --> 8, 11 --> 8,
                 12 --> 10, 13 --> 8, 14 --> 8, 15 --> 10, 16 --> 8, 17 --> 8, 18 --> 8, 19 --> 8, 20 --> 8, 21 --> 9,
                 22 --> 8, 23 --> 8, 24 --> 8, 25 --> 8)
letting maxcars be
        function(1 --> 9, 2 --> 9, 3 --> 9, 4 --> 10, 5 --> 9, 6 --> 9, 7 --> 9, 8 --> 9, 9 --> 9, 10 --> 9, 11 --> 9,
                 12 --> 9, 13 --> 9, 14 --> 9, 15 --> 9, 16 --> 9, 17 --> 10, 18 --> 9, 19 --> 9, 20 --> 9, 21 --> 9,
                 22 --> 9, 23 --> 9, 24 --> 9, 25 --> 9)
letting n_cars be 216
letting n_classes be 41
letting n_options be 25
letting quantity be
        function(1 --> 5, 2 --> 5, 3 --> 5, 4 --> 5, 5 --> 5, 6 --> 5, 7 --> 5, 8 --> 5, 9 --> 5, 10 --> 6, 11 --> 14,
                 12 --> 5, 13 --> 5, 14 --> 5, 15 --> 5, 16 --> 5, 17 --> 5, 18 --> 5, 19 --> 5, 20 --> 5, 21 --> 5,
                 22 --> 5, 23 --> 5, 24 --> 5, 25 --> 5, 26 --> 5, 27 --> 5, 28 --> 5, 29 --> 5, 30 --> 6, 31 --> 5,
                 32 --> 5, 33 --> 5, 34 --> 5, 35 --> 5, 36 --> 5, 37 --> 5, 38 --> 5, 39 --> 5, 40 --> 5, 41 --> 5)
letting usage be
        relation((1, 13), (1, 17), (1, 18), (2, 2), (2, 12), (3, 5), (3, 18), (4, 1), (4, 4), (4, 5), (5, 23), (6, 3),
                 (6, 4), (7, 1), (7, 9), (7, 10), (7, 12), (7, 13), (8, 3), (8, 9), (8, 22), (8, 24), (9, 6), (9, 20),
                 (10, 5), (10, 12), (11, 4), (11, 8), (11, 12), (11, 15), (11, 16), (11, 21), (12, 25), (13, 9),
                 (13, 14), (14, 7), (14, 9), (14, 11), (14, 16), (14, 22), (15, 18), (15, 19), (16, 6), (16, 9),
                 (16, 10), (16, 16), (17, 23), (18, 15), (18, 23), (19, 7), (20, 4), (20, 5), (20, 6), (20, 10),
                 (20, 20), (20, 24), (21, 1), (21, 7), (22, 22), (23, 12), (23, 15), (23, 20), (23, 25), (24, 7),
                 (24, 9), (24, 14), (24, 21), (24, 24), (25, 1), (25, 5), (25, 10), (25, 17), (26, 6), (26, 12),
                 (26, 13), (26, 20), (27, 22), (28, 4), (28, 11), (28, 16), (28, 20), (29, 2), (29, 13), (29, 20),
                 (30, 12), (30, 18), (30, 21), (30, 23), (31, 4), (31, 7), (31, 10), (32, 1), (32, 2), (32, 9),
                 (32, 21), (33, 11), (33, 17), (33, 19), (34, 4), (34, 9), (34, 10), (34, 12), (34, 15), (34, 16),
                 (34, 20), (35, 7), (35, 22), (36, 7), (36, 10), (36, 15), (37, 3), (37, 7), (37, 20), (38, 25),
                 (39, 10), (40, 7), (40, 13), (40, 18), (40, 19), (41, 3), (41, 10))
$ Visualisation for usage
$  1 13
$  1 17
$  1 18
$  2  2
$  2 12
$  3  5
$  3 18
$  4  1
$  4  4
$  4  5
$  5 23
$  6  3
$  6  4
$  7  1
$  7  9
$  7 10
$  7 12
$  7 13
$  8  3
$  8  9
$  8 22
$  8 24
$  9  6
$  9 20
$ 10  5
$ 10 12
$ 11  4
$ 11  8
$ 11 12
$ 11 15
$ 11 16
$ 11 21
$ 12 25
$ 13  9
$ 13 14
$ 14  7
$ 14  9
$ 14 11
$ 14 16
$ 14 22
$ 15 18
$ 15 19
$ 16  6
$ 16  9
$ 16 10
$ 16 16
$ 17 23
$ 18 15
$ 18 23
$ 19  7
$ 20  4
$ 20  5
$ 20  6
$ 20 10
$ 20 20
$ 20 24
$ 21  1
$ 21  7
$ 22 22
$ 23 12
$ 23 15
$ 23 20
$ 23 25
$ 24  7
$ 24  9
$ 24 14
$ 24 21
$ 24 24
$ 25  1
$ 25  5
$ 25 10
$ 25 17
$ 26  6
$ 26 12
$ 26 13
$ 26 20
$ 27 22
$ 28  4
$ 28 11
$ 28 16
$ 28 20
$ 29  2
$ 29 13
$ 29 20
$ 30 12
$ 30 18
$ 30 21
$ 30 23
$ 31  4
$ 31  7
$ 31 10
$ 32  1
$ 32  2
$ 32  9
$ 32 21
$ 33 11
$ 33 17
$ 33 19
$ 34  4
$ 34  9
$ 34 10
$ 34 12
$ 34 15
$ 34 16
$ 34 20
$ 35  7
$ 35 22
$ 36  7
$ 36 10
$ 36 15
$ 37  3
$ 37  7
$ 37 20
$ 38 25
$ 39 10
$ 40  7
$ 40 13
$ 40 18
$ 40 19
$ 41  3
$ 41 10

